
  32    4
  10   10   10   10

   0   0   0   0   0   5 2 4 10 11 15 
   7   0   1   1   1   1 3 
   4   1   5   0   4   4 17 13 12 5 
   3   0   1   6   3   5 21 17 13 12 6 
   9   7   4   2   0   3 31 16 7 
   6   5   7   6   0   6 31 30 29 20 19 9 
   5   5   5   6   0   4 29 20 19 8 
   3   5   3   0   4   2 30 9 
   8   0   3   6   3   5 27 25 24 23 14 
   2   0   5   4   3   2 23 13 
   4   6   8   0   7   3 24 23 14 
   9   3   0   3   6   4 29 27 20 19 
   1   3   4   0   2   3 28 22 16 
   8   2   3   4   0   2 22 18 
   4   4   3   0   2   2 22 21 
   6   5   4   5   0   2 25 24 
   6   0   4   8   4   2 28 22 
   4   0   3   3   4   1 26 
   5   0   6   6   4   1 23 
   7   3   5   5   0   1 23 
   7   0   2   6   4   1 28 
   1   3   5   0   6   1 32
   7   2   3   1   0   1 32
   3   4   0   5   5   1 32
   8   5   3   1   0   1 32
   8   2   6   3   0   1 32
   1   8   0   2   3   1 32
   1   3   4   0   4   1 32
   6   4   0   3   5   1 32
   4   5   3   0   4   1 32
   6   3   0   2   6   1 32
   0   0   0   0   0   0 
